SYSTEM =  - local optimisation
PREC = normal
EDIFF = 1e-7
IBRION = 2
#ISIF = 3
NSW = 0
ISMEAR = 0 ; SIGMA = 0.05
POTIM = 0.5
#Wavefunction and charge
LWAVE = FALSE
LCHARG = FALSE
ISTART = 0
#Target Pressure
PSTRESS = 0.01 
ALGO=fast
#Crude optimisation
EDIFFG = -1e-2
NELM = 100

LPLANE=.TRUE.
LREAL = Auto

LCALCPOL = .TRUE.
DIPOL = 0.50 0.50 0.50
